c description: tiling of 
c generator: CNFgen (0.9.0)
c copyright: (C) 2012-2020 Massimo Lauria <massimo.lauria@uniroma1.it>
c url: https://massimolauria.net/cnfgen
c
p cnf 20 92
-1 -6 0
-1 -7 0
-1 -9 0
-6 -7 0
-6 -9 0
-7 -9 0
1 6 7 9 0
-1 -7 0
1 7 0
-2 -4 0
2 4 0
-2 -4 0
-2 -8 0
-4 -8 0
2 4 8 0
-2 -8 0
-2 -11 0
-2 -20 0
-8 -11 0
-8 -20 0
-11 -20 0
2 8 11 20 0
3 0
-5 -12 0
5 12 0
-5 -12 0
-5 -13 0
-5 -20 0
-12 -13 0
-12 -20 0
-13 -20 0
5 12 13 20 0
-6 -7 0
-6 -16 0
-6 -18 0
-7 -16 0
-7 -18 0
-16 -18 0
6 7 16 18 0
-6 -16 0
-6 -19 0
-16 -19 0
6 16 19 0
-6 -17 0
-6 -18 0
-6 -19 0
-17 -18 0
-17 -19 0
-18 -19 0
6 17 18 19 0
-7 -9 0
-7 -15 0
-9 -15 0
7 9 15 0
-8 -11 0
8 11 0
-8 -12 0
-8 -20 0
-12 -20 0
8 12 20 0
-9 -13 0
-9 -14 0
-9 -15 0
-9 -19 0
-13 -14 0
-13 -15 0
-13 -19 0
-14 -15 0
-14 -19 0
-15 -19 0
9 13 14 15 19 0
10 0
-12 -13 0
-12 -15 0
-12 -17 0
-13 -15 0
-13 -17 0
-15 -17 0
12 13 15 17 0
-13 -17 0
-13 -18 0
-17 -18 0
13 17 18 0
-14 -15 0
14 15 0
-15 -16 0
-15 -18 0
-15 -19 0
-16 -18 0
-16 -19 0
-18 -19 0
15 16 18 19 0